(set-logic QF_UF)
(declare-fun A1 () Bool)
(declare-fun A3 () Bool)
(declare-fun A4 () Bool)
(declare-fun A5 () Bool)
(declare-fun A6 () Bool)
(declare-fun A7 () Bool)
(declare-fun A8 () Bool)
(declare-fun A9 () Bool)
(declare-fun A10 () Bool)
(declare-fun A11 () Bool)
(declare-fun A12 () Bool)
(declare-fun A13 () Bool)
(declare-fun A14 () Bool)
(declare-fun A15 () Bool)
(declare-fun A16 () Bool)
(declare-fun A17 () Bool)
(declare-fun A18 () Bool)
(declare-fun A19 () Bool)
(declare-fun A20 () Bool)
(declare-fun A22 () Bool)
(declare-fun A23 () Bool)
(declare-fun A24 () Bool)
(assert (let ((.def_0 (= A22 A11))) (let ((.def_1 (= A23 A10))) (let ((.def_2 (or .def_1 .def_0))) (let ((.def_3 (not .def_2))) (let ((.def_4 (= A1 A15))) (let ((.def_5 (not A15))) (let ((.def_6 (or .def_5 A7))) (let ((.def_7 (or .def_6 .def_4))) (let ((.def_8 (and .def_7 .def_3))) (let ((.def_9 (not A4))) (let ((.def_10 (not A1))) (let ((.def_11 (or .def_10 .def_9))) (let ((.def_12 (not A3))) (let ((.def_13 (and .def_12 A14))) (let ((.def_14 (and .def_13 .def_11))) (let ((.def_15 (not .def_14))) (let ((.def_16 (not A12))) (let ((.def_17 (and A6 .def_16))) (let ((.def_18 (and A13 A20))) (let ((.def_19 (or .def_18 .def_17))) (let ((.def_20 (and .def_19 .def_15))) (let ((.def_21 (or .def_20 .def_8))) (let ((.def_22 (not .def_21))) (let ((.def_23 (not A19))) (let ((.def_24 (= .def_23 A15))) (let ((.def_25 (not .def_24))) (let ((.def_26 (not A18))) (let ((.def_27 (= .def_26 A7))) (let ((.def_28 (or .def_27 .def_25))) (let ((.def_29 (not A8))) (let ((.def_30 (and A17 .def_29))) (let ((.def_31 (and A3 A9))) (let ((.def_32 (not .def_31))) (let ((.def_33 (or .def_32 .def_30))) (let ((.def_34 (not .def_33))) (let ((.def_35 (and .def_34 .def_28))) (let ((.def_36 (or A3 A12))) (let ((.def_37 (or A12 A12))) (let ((.def_38 (not .def_37))) (let ((.def_39 (or .def_38 .def_36))) (let ((.def_40 (not .def_39))) (let ((.def_41 (not A16))) (let ((.def_42 (and .def_41 .def_26))) (let ((.def_43 (not .def_42))) (let ((.def_44 (= A15 A3))) (let ((.def_45 (not .def_44))) (let ((.def_46 (or .def_45 .def_43))) (let ((.def_47 (or .def_46 .def_40))) (let ((.def_48 (or .def_47 .def_35))) (let ((.def_49 (not .def_48))) (let ((.def_50 (or .def_49 .def_22))) (let ((.def_51 (and A14 .def_16))) (let ((.def_52 (not .def_51))) (let ((.def_53 (not A9))) (let ((.def_54 (or .def_16 .def_53))) (let ((.def_55 (and .def_54 .def_52))) (let ((.def_56 (not .def_55))) (let ((.def_57 (= A10 .def_23))) (let ((.def_58 (not .def_57))) (let ((.def_59 (and .def_41 .def_53))) (let ((.def_60 (not .def_59))) (let ((.def_61 (or .def_60 .def_58))) (let ((.def_62 (not .def_61))) (let ((.def_63 (or .def_62 .def_56))) (let ((.def_64 (not .def_63))) (let ((.def_65 (not A5))) (let ((.def_66 (not A17))) (let ((.def_67 (= .def_66 .def_65))) (let ((.def_68 (not A6))) (let ((.def_69 (not A22))) (let ((.def_70 (and .def_69 .def_68))) (let ((.def_71 (not .def_70))) (let ((.def_72 (= .def_71 .def_67))) (let ((.def_73 (not .def_72))) (let ((.def_74 (not A10))) (let ((.def_75 (and .def_74 .def_69))) (let ((.def_76 (and .def_10 .def_74))) (let ((.def_77 (not .def_76))) (let ((.def_78 (and .def_77 .def_75))) (let ((.def_79 (and .def_78 .def_73))) (let ((.def_80 (and .def_79 .def_64))) (let ((.def_81 (not .def_80))) (let ((.def_82 (and A4 A15))) (let ((.def_83 (not .def_82))) (let ((.def_84 (or A4 .def_26))) (let ((.def_85 (and .def_84 .def_83))) (let ((.def_86 (not .def_85))) (let ((.def_87 (= .def_68 .def_23))) (let ((.def_88 (or .def_41 A18))) (let ((.def_89 (not .def_88))) (let ((.def_90 (or .def_89 .def_87))) (let ((.def_91 (not .def_90))) (let ((.def_92 (or .def_91 .def_86))) (let ((.def_93 (or A4 .def_53))) (let ((.def_94 (not .def_93))) (let ((.def_95 (or A24 A1))) (let ((.def_96 (not .def_95))) (let ((.def_97 (and .def_96 .def_94))) (let ((.def_98 (or .def_66 A4))) (let ((.def_99 (not .def_98))) (let ((.def_100 (not A11))) (let ((.def_101 (and .def_100 .def_26))) (let ((.def_102 (not .def_101))) (let ((.def_103 (and .def_102 .def_99))) (let ((.def_104 (and .def_103 .def_97))) (let ((.def_105 (not .def_104))) (let ((.def_106 (and .def_105 .def_92))) (let ((.def_107 (or .def_106 .def_81))) (let ((.def_108 (not .def_107))) (let ((.def_109 (or .def_108 .def_50))) (let ((.def_110 (not .def_109))) .def_110))))))))))))))))))))))))))))))))))))))))))))))))))))))))))))))))))))))))))))))))))))))))))))))))))))))))))))))))
(check-sat)
